; words CAT, SON, POD, RIG, PEG, TAP, DIN, APE
(declare-const C Int)
(declare-const A Int)
(declare-const T Int)
(declare-const S Int)
(declare-const O Int)
(declare-const N Int)
(declare-const P Int)
(declare-const D Int)
(declare-const R Int)
(declare-const I Int)
(declare-const G Int)
(declare-const E Int)
 
